c FILE /home/rafael/Documents/HappySet/MIHS/inputs/happygen/output/graph_d_regular_k7_p0.4_v100_20241127_084102.txt
c SOURCE This is a d-regular graph formed for the happy graph colouring problem.
c DESCRIPTION It was generated using the problem generator of Rhyd Lewis
c
c GRAPH STATS
c Seed                             = 1334692121
c Number of Nodes                  = 100
c Number of colours k              = 7
c Number of pre-assignments        = 40
c Degree of all vertices           = 6
c Density                          = 0.0606061
c 
c The degrees of nodes 1 to 100, respectively, are as follows 
c [6, 6, 6, 6, 6, 6, 6, 6, 6, 6, 6, 6, 6, 6, 6, 6, 6, 6, 6, 6, 6, 6, 6, 6, 6, 6, 
c  6, 6, 6, 6, 6, 6, 6, 6, 6, 6, 6, 6, 6, 6, 6, 6, 6, 6, 6, 6, 6, 6, 6, 6, 6, 
c  6, 6, 6, 6, 6, 6, 6, 6, 6, 6, 6, 6, 6, 6, 6, 6, 6, 6, 6, 6, 6, 6, 6, 6, 6, 
c  6, 6, 6, 6, 6, 6, 6, 6, 6, 6, 6, 6, 6, 6, 6, 6, 6, 6, 6, 6, 6, 6, 6, 6] 
c  
p edge 100 300 7
e 1 42
e 1 44
e 1 54
e 1 55
e 1 90
e 1 100
e 2 14
e 2 26
e 2 34
e 2 81
e 2 88
e 2 91
e 3 7
e 3 18
e 3 34
e 3 42
e 3 68
e 3 94
e 4 16
e 4 18
e 4 34
e 4 46
e 4 50
e 4 67
e 5 28
e 5 29
e 5 66
e 5 78
e 5 91
e 5 96
e 6 41
e 6 44
e 6 52
e 6 61
e 6 95
e 6 97
e 7 8
e 7 35
e 7 58
e 7 72
e 7 80
e 8 20
e 8 42
e 8 43
e 8 47
e 8 69
e 9 15
e 9 27
e 9 68
e 9 92
e 9 93
e 9 94
e 10 12
e 10 14
e 10 65
e 10 79
e 10 81
e 10 90
e 11 26
e 11 32
e 11 38
e 11 59
e 11 69
e 11 98
e 12 22
e 12 40
e 12 62
e 12 93
e 12 96
e 13 15
e 13 27
e 13 45
e 13 47
e 13 57
e 13 81
e 14 32
e 14 35
e 14 59
e 14 70
e 15 22
e 15 27
e 15 37
e 15 51
e 16 58
e 16 61
e 16 76
e 16 83
e 16 97
e 17 19
e 17 29
e 17 53
e 17 58
e 17 63
e 17 88
e 18 25
e 18 31
e 18 68
e 18 85
e 19 24
e 19 30
e 19 47
e 19 62
e 19 95
e 20 25
e 20 54
e 20 66
e 20 69
e 20 74
e 21 41
e 21 66
e 21 70
e 21 76
e 21 86
e 21 89
e 22 32
e 22 36
e 22 79
e 22 100
e 23 34
e 23 42
e 23 49
e 23 51
e 23 86
e 23 87
e 24 57
e 24 66
e 24 80
e 24 95
e 24 99
e 25 42
e 25 49
e 25 65
e 25 67
e 26 38
e 26 44
e 26 56
e 26 86
e 27 49
e 27 67
e 27 99
e 28 35
e 28 60
e 28 61
e 28 70
e 28 97
e 29 31
e 29 71
e 29 83
e 29 84
e 30 39
e 30 48
e 30 64
e 30 91
e 30 99
e 31 65
e 31 66
e 31 74
e 31 84
e 32 39
e 32 80
e 32 97
e 33 46
e 33 48
e 33 49
e 33 67
e 33 76
e 33 78
e 34 50
e 34 65
e 35 46
e 35 64
e 35 71
e 36 47
e 36 58
e 36 72
e 36 81
e 36 85
e 37 39
e 37 63
e 37 71
e 37 78
e 37 81
e 38 50
e 38 52
e 38 85
e 38 98
e 39 48
e 39 82
e 39 90
e 40 64
e 40 84
e 40 91
e 40 93
e 40 100
e 41 44
e 41 60
e 41 94
e 41 96
e 42 75
e 43 56
e 43 62
e 43 64
e 43 73
e 43 98
e 44 56
e 44 75
e 45 73
e 45 78
e 45 84
e 45 91
e 45 93
e 46 62
e 46 75
e 46 79
e 47 57
e 47 67
e 48 60
e 48 63
e 48 82
e 49 77
e 49 96
e 50 60
e 50 76
e 50 98
e 51 52
e 51 70
e 51 82
e 51 99
e 52 56
e 52 80
e 52 87
e 53 71
e 53 73
e 53 86
e 53 89
e 53 95
e 54 68
e 54 85
e 54 90
e 54 93
e 55 65
e 55 75
e 55 85
e 55 88
e 55 93
e 56 78
e 56 84
e 57 74
e 57 76
e 57 94
e 58 59
e 58 88
e 59 72
e 59 90
e 59 100
e 60 80
e 60 83
e 61 63
e 61 75
e 61 77
e 62 77
e 62 98
e 63 74
e 63 100
e 64 71
e 64 88
e 65 89
e 66 91
e 67 87
e 68 84
e 68 90
e 69 72
e 69 83
e 69 89
e 70 92
e 70 97
e 71 80
e 72 76
e 72 87
e 73 74
e 73 86
e 73 96
e 74 87
e 75 89
e 77 82
e 77 86
e 77 92
e 78 83
e 79 81
e 79 82
e 79 83
e 82 92
e 85 94
e 87 99
e 88 95
e 89 97
e 92 95
e 92 98
e 94 99
e 96 100
n 2 7
n 3 6
n 4 5
n 12 3
n 13 4
n 15 4
n 17 1
n 21 2
n 24 7
n 25 5
n 28 1
n 31 5
n 32 3
n 35 1
n 36 1
n 38 2
n 39 3
n 44 5
n 51 4
n 54 3
n 58 1
n 59 1
n 60 1
n 64 1
n 65 5
n 67 5
n 69 6
n 71 1
n 73 5
n 74 5
n 75 5
n 76 2
n 77 7
n 78 3
n 79 4
n 87 5
n 91 7
n 93 3
n 94 6
n 98 2
